c CNF
c from Selman's wff generator
p cnf 10  45
8 -1 5 0
6 -7 -2 0
-3 1 -6 0
9 6 3 0
-9 -8 -10 0
-1 8 -5 0
-4 -10 -9 0
9 3 5 0
10 -4 6 0
1 7 10 0
-8 -2 6 0
9 5 -1 0
4 2 -8 0
-4 7 -6 0
-8 1 -9 0
6 7 -4 0
-10 7 -4 0
-1 -6 5 0
-9 -5 -1 0
4 10 -8 0
8 -1 -9 0
-9 -4 -1 0
9 5 -4 0
-3 -8 9 0
6 4 10 0
-3 9 10 0
-7 -9 -2 0
9 -10 7 0
10 -3 -2 0
-5 9 6 0
-1 -10 4 0
-2 5 -1 0
-6 -5 10 0
7 -8 -2 0
3 -8 1 0
4 -1 -7 0
8 6 -2 0
-9 4 -3 0
-3 -1 -8 0
6 -8 -3 0
-4 5 8 0
-5 10 7 0
-7 -4 1 0
7 4 -1 0
3 6 10 0
